p tw 36 2521 2 
1 3 
1 4 
1 5 
1 6 
1 7 
1 8 
1 9 
1 10 
1 11 
1 12 
1 13 
1 14 
1 15 
2 3 
2 4 
2 5 
2 6 
2 7 
2 8 
2 9 
2 16 
2 17 
2 18 
2 19 
2 20 
2 21 
3 4 
3 5 
3 6 
3 7 
3 8 
3 10 
3 16 
3 22 
3 23 
3 24 
3 25 
3 26 
4 5 
4 6 
4 7 
4 8 
4 11 
4 17 
4 22 
4 27 
4 28 
4 29 
4 30 
5 6 
5 7 
5 8 
5 12 
5 18 
5 23 
5 27 
5 31 
5 32 
5 33 
6 7 
6 8 
6 13 
6 19 
6 24 
6 28 
6 31 
6 34 
6 35 
7 8 
7 14 
7 20 
7 25 
7 29 
7 32 
7 34 
7 36 
8 15 
8 21 
8 26 
8 30 
8 33 
8 35 
8 36 
9 10 
9 11 
9 12 
9 13 
9 14 
9 15 
9 16 
9 17 
9 18 
9 19 
9 20 
9 21 
10 11 
10 12 
10 13 
10 14 
10 15 
10 16 
10 22 
10 23 
10 24 
10 25 
10 26 
11 12 
11 13 
11 14 
11 15 
11 17 
11 22 
11 27 
11 28 
11 29 
11 30 
12 13 
12 14 
12 15 
12 18 
12 23 
12 27 
12 31 
12 32 
12 33 
13 14 
13 15 
13 19 
13 24 
13 28 
13 31 
13 34 
13 35 
14 15 
14 20 
14 25 
14 29 
14 32 
14 34 
14 36 
15 21 
15 26 
15 30 
15 33 
15 35 
15 36 
16 17 
16 18 
16 19 
16 20 
16 21 
16 22 
16 23 
16 24 
16 25 
16 26 
17 18 
17 19 
17 20 
17 21 
17 22 
17 27 
17 28 
17 29 
17 30 
18 19 
18 20 
18 21 
18 23 
18 27 
18 31 
18 32 
18 33 
19 20 
19 21 
19 24 
19 28 
19 31 
19 34 
19 35 
20 21 
20 25 
20 29 
20 32 
20 34 
20 36 
21 26 
21 30 
21 33 
21 35 
21 36 
22 23 
22 24 
22 25 
22 26 
22 27 
22 28 
22 29 
22 30 
23 24 
23 25 
23 26 
23 27 
23 31 
23 32 
23 33 
24 25 
24 26 
24 28 
24 31 
24 34 
24 35 
25 26 
25 29 
25 32 
25 34 
25 36 
26 30 
26 33 
26 35 
26 36 
27 28 
27 29 
27 30 
27 31 
27 32 
27 33 
28 29 
28 30 
28 31 
28 34 
28 35 
29 30 
29 32 
29 34 
29 36 
30 33 
30 35 
30 36 
31 32 
31 33 
31 34 
31 35 
32 33 
32 34 
32 36 
33 35 
33 36 
34 35 
34 36 
35 36 
